12 66
1 2 4
1 3 3
1 4 3
1 5 4
1 6 3
1 7 3
1 8 4
1 9 3
1 10 5
1 11 5
1 12 2
2 3 2
2 4 1
2 5 4
2 6 2
2 7 3
2 8 5
2 9 4
2 10 1
2 11 4
2 12 5
3 4 4
3 5 1
3 6 2
3 7 5
3 8 3
3 9 5
3 10 2
3 11 2
3 12 2
4 5 1
4 6 5
4 7 3
4 8 4
4 9 2
4 10 1
4 11 4
4 12 3
5 6 1
5 7 5
5 8 3
5 9 3
5 10 2
5 11 2
5 12 1
6 7 4
6 8 4
6 9 1
6 10 4
6 11 3
6 12 1
7 8 3
7 9 2
7 10 1
7 11 4
7 12 4
8 9 5
8 10 5
8 11 1
8 12 4
9 10 2
9 11 5
9 12 2
10 11 1
10 12 1
11 12 5
